qe/outputs/qe/cbrdelay_obs_newl/T=6,eliminate=[I_0,I_1,I_2,I_3,I_4,I_5,L_2,L_3,L_4,L_5,lhs=S_5].smt2
; benchmark generated from python API
(set-info :status unknown)
(declare-fun C () Real)
(declare-fun S_5 () Real)
(declare-fun A_1 () Real)
(declare-fun L_1 () Real)
(declare-fun S_3 () Real)
(declare-fun S_4 () Real)
(declare-fun S_1 () Real)
(declare-fun L_0 () Real)
(declare-fun A_0 () Real)
(declare-fun S_2 () Real)
(declare-fun B () Real)
(declare-fun S_0 () Real)
(declare-fun A_5 () Real)
(declare-fun A_2 () Real)
(declare-fun A_4 () Real)
(declare-fun A_3 () Real)
(assert
 (let (($x14307 (>= (+ S_4 (* (- 1.0) B) (* (- 1.0) C) (* (- 1.0) S_2)) 0.0)))
 (let (($x14638 (>= (+ L_1 (* (- 1.0) A_1) S_4 (* (- 1.0) B) (* (- 1.0) C)) 0.0)))
 (let (($x39 (>= L_0 0.0)))
 (let (($x796 (>= C 5.0)))
 (let ((?x454 (* (- 1.0) A_5)))
 (let ((?x358 (* (- 1.0) C)))
 (let ((?x274 (* (- 1.0) B)))
 (let ((?x443 (* (- 1.0) A_1)))
 (let (($x4323 (<= (+ ?x274 (* (- 2.0) C) ?x454 A_2 (* (- 1.0) A_0) S_5 L_0) 0.0)))
 (let (($x4317 (<= (+ ?x274 (* (- 3.0) C) ?x454 A_2 S_5 (* (- 1.0) S_0)) 0.0)))
 (let (($x15741 (<= 0.0 (+ L_1 ?x443 C S_0))))
 (let (($x15742 (not $x15741)))
 (let (($x1214 (<= (+ (* (- 1.0) L_1) A_4 (* (- 1.0) S_5)) 0.0)))
 (let (($x621 (<= 0.0 (+ ?x274 (* 2.0 C) (* (- 1.0) A_4) A_2))))
 (let (($x619 (not $x621)))
 (let (($x24901 (or $x619 $x1214 (not (<= 0.0 (+ A_1 B C (* (- 1.0) A_2)))) $x15742)))
 (let (($x14465 (<= 0.0 (+ A_1 B C (* (- 1.0) A_2)))))
 (let ((?x437 (* (- 1.0) S_5)))
 (let ((?x445 (* (- 1.0) A_2)))
 (let ((?x283 (* (- 1.0) L_1)))
 (let (($x25287 (or $x619 (<= (+ ?x283 A_1 B C A_4 ?x445 ?x437) 0.0) $x14465 $x15742)))
 (let (($x4438 (<= (+ (* 4.0 C) ?x437 S_0) 0.0)))
 (let (($x17270 (or $x1214 (<= (+ B (* 2.0 C) A_4 ?x445 ?x437 S_0) 0.0) $x4438 $x15741)))
 (let (($x3606 (<= (+ L_1 ?x443 ?x274 (* (- 2.0) C) (* (- 1.0) A_4) A_2 S_5) 0.0)))
 (let ((?x1241 (* (- 1.0) S_0)))
 (let ((?x451 (* (- 1.0) A_4)))
 (let ((?x1619 (* (- 4.0) C)))
 (let (($x12053 (<= (+ ?x274 (* (- 3.0) C) ?x451 A_2 (* (- 1.0) A_0) S_5 L_0) 0.0)))
 (let (($x12023 (<= (+ ?x274 (* (- 3.0) C) ?x451 A_2 S_5 (* (- 1.0) S_1)) 0.0)))
 (let (($x4979 (<= (+ (* 2.0 C) ?x437 S_2) 0.0)))
 (let (($x2726 (<= (+ C ?x437 S_3) 0.0)))
 (let (($x12039 (<= (+ ?x274 (* (- 2.0) C) ?x451 A_2 S_5 (* (- 1.0) S_2)) 0.0)))
 (let (($x4857 (<= (+ (* 3.0 C) ?x437 S_1) 0.0)))
 (let (($x10383 (<= (+ ?x274 (* (- 3.0) C) ?x454 A_3 S_5 (* (- 1.0) S_1)) 0.0)))
 (let (($x10399 (<= (+ ?x274 (* (- 2.0) C) ?x454 A_3 S_5 (* (- 1.0) S_2)) 0.0)))
 (let (($x10426 (<= (+ ?x274 (* (- 3.0) C) ?x454 A_3 (* (- 1.0) A_0) S_5 L_0) 0.0)))
 (let (($x14803 (not (<= 0.0 (+ S_4 ?x274 (* 2.0 C) ?x437)))))
 (let (($x550 (<= 0.0 (+ C (* (- 1.0) A_3) A_2))))
 (let (($x5121 (<= (+ ?x283 A_1 ?x437 (* 3.0 C)) 0.0)))
 (let (($x1698 (<= (+ ?x358 A_4 (* (- 1.0) A_3)) 0.0)))
 (let (($x8062 (or (<= (+ ?x283 A_1 (* (- 1.0) S_2)) 0.0) (<= (+ C (* (- 1.0) S_2) S_0) 0.0))))
 (let (($x4313 (<= (+ ?x274 (* (- 2.0) C) ?x454 A_2 S_5 (* (- 1.0) S_1)) 0.0)))
 (let (($x56 (= L_1 L_0)))
 (let (($x1254 (<= (+ ?x443 A_2 ?x358) 0.0)))
 (let (($x25209 (or $x1254 (<= (+ ?x283 A_1 ?x437 (* 3.0 C) ?x274) 0.0) (<= (+ ?x283 A_1 C A_4 ?x445 ?x437) 0.0))))
 (let (($x17940 (or $x56 (<= (+ L_1 ?x443 (* (- 2.0) C) ?x451 A_2 S_5) 0.0))))
 (let (($x14707 (not (<= 0.0 (+ S_4 ?x274 (* (- 2.0) C) (* (- 1.0) A_0) L_0)))))
 (let (($x14786 (or (<= (+ ?x283 A_1 (* (- 1.0) S_4) (* 2.0 C)) 0.0) (<= (+ (* (- 1.0) S_4) (* 3.0 C) S_0) 0.0))))
 (let (($x4277 (or (<= (+ (* 2.0 C) (* (- 1.0) S_3) S_0) 0.0) (<= (+ ?x283 A_1 C (* (- 1.0) S_3)) 0.0))))
 (let (($x1672 (<= (+ ?x283 A_1 ?x274 (* 3.0 C) ?x437) 0.0)))
 (let (($x25127 (or $x56 (<= (+ L_1 ?x443 (* (- 2.0) C) ?x454 A_3 S_5) 0.0))))
 (let (($x128 (>= S_1 S_0)))
 (let (($x131 (>= S_2 S_1)))
 (let (($x134 (>= S_3 S_2)))
 (let (($x137 (>= S_4 S_3)))
 (let (($x140 (>= S_5 S_4)))
 (let (($x142 (>= A_1 A_0)))
 (let (($x144 (>= A_3 A_2)))
 (let (($x145 (>= A_4 A_3)))
 (let (($x146 (>= A_5 A_4)))
 (and (<= (+ A_1 ?x283) S_4) $x146 $x145 $x144 $x142 $x140 $x137 $x134 $x131 $x128 (or $x56 (not (<= 0.0 (+ ?x283 L_0)))) (<= (+ ?x283 A_1 (* (- 1.0) S_2) ?x274) 0.0) (<= (+ ?x283 A_1 (* (- 1.0) A_0) ?x358 ?x274 L_0) 0.0) (<= (+ ?x283 A_1 (* (- 2.0) C) ?x1241 ?x274) 0.0) (<= (+ ?x283 A_1 ?x358 (* (- 1.0) S_1) ?x274) 0.0) (<= (+ ?x283 A_1 (* (- 1.0) S_3) C ?x274) 0.0) (<= (+ ?x283 A_1 (* (- 1.0) S_4) (* 2.0 C) ?x274) 0.0) (or $x56 (<= (+ L_1 ?x443 ?x358 S_2 B) 0.0)) (or $x56 (<= (+ L_1 ?x443 S_1 B) 0.0)) (or $x56 (<= (+ L_1 ?x443 S_3 (* (- 2.0) C) B) 0.0)) (or $x56 (<= (+ L_1 ?x443 S_4 B (* (- 3.0) C)) 0.0)) (or $x56 (<= (+ L_1 ?x443 C S_0 B) 0.0)) (or $x56 (<= (+ L_1 ?x443 B ?x1619 S_5) 0.0)) (or $x550 $x1672) (or $x56 (not (<= 0.0 (+ L_1 ?x443 S_4 ?x358)))) (or $x1672 $x1698) $x25127 (or $x621 $x1254 $x1672) (or $x1214 (not $x1254) $x1672) (or $x1698 $x2726) (<= (+ ?x358 (* (- 1.0) A_0) S_1 L_0) 0.0) $x4277 $x14786 (<= (+ (* (- 2.0) C) (* (- 1.0) A_0) S_2 L_0) 0.0) (not (<= 0.0 (+ S_4 ?x274 (* (- 1.0) S_3)))) $x14707 $x17940 $x25209 (or $x56 (<= (+ L_1 ?x443 ?x358 ?x454 A_2 S_5) 0.0)) (not (<= 0.0 (+ ?x274 C))) $x4313 (<= (+ (* (- 2.0) C) S_2 (* (- 1.0) S_1)) 0.0) (<= (+ S_5 (* (- 5.0) C) (* (- 1.0) S_1)) 0.0) (<= (+ S_4 (* (- 5.0) C) ?x1241) 0.0) (<= (+ L_1 ?x443 ?x358 S_2) 0.0) (<= (+ (* (- 3.0) C) S_2 ?x1241) 0.0) (or $x1698 $x4979) $x8062 (or $x1698 $x4857) (<= (+ (* (- 2.0) C) S_1 ?x1241) 0.0) (<= (+ ?x1619 S_3 ?x1241) 0.0) (not (<= 0.0 (+ S_4 ?x274 (* (- 3.0) C) ?x1241))) (<= (+ S_5 (* (- 6.0) C) ?x1241) 0.0) (not (<= 0.0 (+ S_4 ?x274 (* (- 2.0) C) (* (- 1.0) S_1)))) (or $x1698 $x4438 $x5121) (or $x1698 $x14803) (or $x550 $x14803) (<= (+ ?x274 ?x1619 ?x454 A_3 S_5 ?x1241) 0.0) (<= (+ (* (- 1.0) S_4) ?x274 ?x454 A_3 S_5) 0.0) $x10426 (<= (+ L_1 ?x443 ?x274 (* (- 2.0) C) ?x454 A_3 S_5) 0.0) $x10399 (<= (+ ?x274 ?x358 ?x454 A_3 S_5 (* (- 1.0) S_3)) 0.0) $x10383 (<= (+ (* (- 1.0) S_4) ?x274 C ?x454 A_2 S_5) 0.0) (<= (+ (* (- 1.0) S_4) ?x274 ?x451 A_2 S_5) 0.0) (or $x621 $x14803) (<= (+ L_1 ?x451 S_5 ?x358) 0.0) (or $x1214 (<= (+ B C A_4 ?x445 ?x437 S_1) 0.0) $x4857) (or $x621 $x1214 $x4438 $x5121) (<= (+ ?x274 ?x358 ?x454 A_2 S_5 (* (- 1.0) S_2)) 0.0) $x12039 (or $x1214 $x2726 (<= (+ B ?x358 A_4 ?x445 ?x437 S_3) 0.0)) (or $x619 (not (<= 0.0 (+ S_4 A_4 ?x445 ?x437)))) (or $x1214 (<= (+ B A_4 ?x445 ?x437 S_2) 0.0) $x4979) (<= (+ ?x274 ?x358 ?x451 A_2 S_5 (* (- 1.0) S_3)) 0.0) $x12023 $x12053 (<= (+ ?x274 ?x1619 ?x451 A_2 S_5 ?x1241) 0.0) $x3606 $x17270 $x25287 $x24901 (<= (+ ?x274 ?x454 A_2 S_5 (* (- 1.0) S_3)) 0.0) $x4317 $x4323 (<= (+ L_1 ?x443 ?x274 ?x358 ?x454 A_2 S_5) 0.0) $x796 $x39 (not (>= (+ L_1 S_4 ?x445) 0.0)) (<= (+ L_1 ?x454 S_5) 0.0) (<= (+ (* (- 2.0) C) S_3 (* (- 1.0) S_2)) 0.0) (<= (+ (* (- 1.0) S_4) S_5 (* (- 2.0) C)) 0.0) (<= (+ S_5 ?x1619 (* (- 1.0) S_2)) 0.0) (<= (+ (* (- 1.0) S_4) C S_2) 0.0) (<= (+ (* (- 1.0) A_0) S_0 L_0) 0.0) (<= (+ (* (- 1.0) S_4) (* 2.0 C) S_1) 0.0) (<= (+ C (* (- 1.0) S_3) S_1) 0.0) (<= (+ S_4 (* (- 2.0) C) (* (- 1.0) S_3)) 0.0) (<= (+ S_4 (* (- 3.0) C) (* (- 1.0) S_2)) 0.0) (not $x14638) (<= (+ (* (- 3.0) C) S_3 (* (- 1.0) S_1)) 0.0) (<= (+ (* (- 3.0) C) (* (- 1.0) A_0) S_3 L_0) 0.0) (<= (+ S_4 ?x1619 (* (- 1.0) S_1)) 0.0) (<= (+ S_4 ?x1619 (* (- 1.0) A_0) L_0) 0.0) (not $x14307) (<= (+ (* (- 1.0) A_0) S_5 (* (- 5.0) C) L_0) 0.0) (<= (+ S_5 (* (- 3.0) C) (* (- 1.0) S_3)) 0.0) (<= (+ L_1 ?x443 S_1) 0.0) (<= (+ L_1 ?x443 S_4 (* (- 3.0) C)) 0.0) (<= (+ L_1 ?x443 (* (- 2.0) C) S_3) 0.0) (<= (+ L_1 ?x443 S_5 ?x1619) 0.0)))))))))))))))))))))))))))))))))))))))))))))))))))))))))))))))
(check-sat)
